(declare-sort sk 0)
(declare-sort fun1 0)
(declare-sort fun12 0)
(declare-sort fun13 0)
(declare-sort fun14 0)
(declare-sort fun15 0)
(declare-sort sk2 0)
(declare-datatype list3 ((nil2) (cons2 (head2 sk) (tail2 list3))))
(declare-datatype list2 ((nil3) (cons3 (head3 Int) (tail3 list2))))
(declare-datatype list ((nil) (cons (head list2) (tail list))))
(declare-fun ordered (list2) Bool)
(declare-fun lmerge (list2 list2) list2)
(declare-fun pairwise (list) list)
(declare-fun mergingbu (list) list2)
(declare-fun msortbu (list2) list2)
(declare-fun map2 (fun1 list3) list3)
(declare-fun map3 (fun15 list2) list)
(declare-const lam fun15)
(declare-fun apply1 (fun1 sk) sk)
(declare-fun apply12 (fun12 sk) sk2)
(declare-fun apply13 (fun13 sk2) sk)
(declare-fun apply14 (fun14 sk2) sk2)
(declare-fun apply15 (fun15 Int) list2)
(assert (ordered nil3))
(assert (= (pairwise nil) nil))
(assert (= (mergingbu nil) nil3))
(assert (forall ((y Int)) (ordered (cons3 y nil3))))
(assert
  (forall ((y Int) (y2 Int) (xs list2))
    (= (ordered (cons3 y (cons3 y2 xs)))
      (and (<= y y2) (ordered (cons3 y2 xs))))))
(assert (forall ((f fun1)) (= (map2 f nil2) nil2)))
(assert
  (forall ((f fun1) (y sk) (xs list3))
    (= (map2 f (cons2 y xs)) (cons2 (apply1 f y) (map2 f xs)))))
(assert (forall ((f fun15)) (= (map3 f nil3) nil)))
(assert
  (forall ((f fun15) (y Int) (xs list2))
    (= (map3 f (cons3 y xs)) (cons (apply15 f y) (map3 f xs)))))
(assert (forall ((y list2)) (= (lmerge nil3 y) y)))
(assert
  (forall ((z Int) (x2 list2))
    (= (lmerge (cons3 z x2) nil3) (cons3 z x2))))
(assert
  (forall ((z Int) (x2 list2) (x3 Int) (x4 list2))
    (=> (not (<= z x3))
      (= (lmerge (cons3 z x2) (cons3 x3 x4))
        (cons3 x3 (lmerge (cons3 z x2) x4))))))
(assert
  (forall ((z Int) (x2 list2) (x3 Int) (x4 list2))
    (=> (<= z x3)
      (= (lmerge (cons3 z x2) (cons3 x3 x4))
        (cons3 z (lmerge x2 (cons3 x3 x4)))))))
(assert
  (forall ((xs list2)) (= (pairwise (cons xs nil)) (cons xs nil))))
(assert
  (forall ((xs list2) (ys list2) (xss list))
    (= (pairwise (cons xs (cons ys xss)))
      (cons (lmerge xs ys) (pairwise xss)))))
(assert (forall ((xs list2)) (= (mergingbu (cons xs nil)) xs)))
(assert
  (forall ((xs list2) (z list2) (x2 list))
    (= (mergingbu (cons xs (cons z x2)))
      (mergingbu (pairwise (cons xs (cons z x2)))))))
(assert
  (forall ((x list2)) (= (msortbu x) (mergingbu (map3 lam x)))))
(assert (forall ((y Int)) (= (apply15 lam y) (cons3 y nil3))))
